GLPSOL--GLPK LP/MIP Solver 5.0
Parameter(s) specified in the command line:
 --lp ../modeles/5_159.lp --log 5_159.log
Reading problem data from '../modeles/5_159.lp'...
816 rows, 1600 columns, 5590 non-zeros
795 integer variables, all of which are binary
2427 lines were read
GLPK Integer Optimizer 5.0
816 rows, 1600 columns, 5590 non-zeros
795 integer variables, all of which are binary
Preprocessing...
790 constraint coefficient(s) were reduced
816 rows, 1595 columns, 5585 non-zeros
795 integer variables, all of which are binary
Scaling...
 A: min|aij| =  1.582e-04  max|aij| =  4.000e+00  ratio =  2.528e+04
GM: min|aij| =  7.931e-02  max|aij| =  1.261e+01  ratio =  1.590e+02
EQ: min|aij| =  6.289e-03  max|aij| =  1.000e+00  ratio =  1.590e+02
2N: min|aij| =  5.063e-03  max|aij| =  1.727e+00  ratio =  3.410e+02
Constructing initial basis...
Size of triangular part is 816
Solving LP relaxation...
GLPK Simplex Optimizer 5.0
816 rows, 1595 columns, 5585 non-zeros
      0: obj =   1.000000000e+01 inf =   2.450e+01 (11)
     64: obj =   4.996242089e-01 inf =   0.000e+00 (0)
*   247: obj =  -2.235368623e+00 inf =   1.540e-16 (0)
OPTIMAL LP SOLUTION FOUND
Integer optimization begins...
Long-step dual simplex will be used
+   247: mip =     not found yet >=              -inf        (1; 0)
+   597: >>>>>  -2.235368623e+00 >=  -2.235368623e+00 < 0.1% (347; 0)
+   597: mip =  -2.235368623e+00 >=     tree is empty   0.0% (0; 693)
INTEGER OPTIMAL SOLUTION FOUND
Time used:   0.4 secs
Memory used: 2.4 Mb (2498761 bytes)
